21717.0
506,174,1958,907,125,1605,1472,990,1870,833,1290,1292,1656,578,455,1403,1354,1078,1220,1392,1445,606,1806,1695,1565,505,12,43,1,1062,1945,838,1121,1942,1338,1089,1772,1369,1567,1346,1698,157,1206,1007,1572,851,422,1261,163,659,852,265,1555,1385,1366,1100,1193,1984,1681,1353,1463,574,432,986,479,1293,668,169,20,1196,63,1286,1467,946,29,1464,758,1146,1351,849,490,1623,1689,1731,757,637,1599,767,1761,1486,665,1690,883,1710,1657,938,1451,1267,423,1978,271,1198,292,242,323,1540,1877,1471,1344,1853,1474,1273,1205,1615,1849,694,926,721,1660
